1 
11 
1 
6 
8 
1 
4 
8 
8 
6 
4 
8 
6 
6 
5 
11 
7 
8 
2 
1 
3 
6 
2 
3 
9 
9 
6 
6 
10 
10 
3 
2 
3 
5 
5 
9 
9 
2 
5 
6 
5 
6 
6 
6 
6 
6 
2 
8 
1 
5 
8 
2 
9 
6 
3 
1 
1 
7 
4 
6 
7 
5 
1 
7 
2 
6 
7 
1 
4 
4 
5 
1 
2 
3 
12 
4 
9 
8 
1 
8 
6 
4 
9 
10 
2 
1 
8 
3 
6 
9 
5 
6 
5 
2 
5 
5 
9 
10 
3 
7 
